%nproc=10
%mem=12gb
%chk=__NAME__

# m08hx/6-31+G* opt(loose,maxcyc=300)

__NAME__

0 1
