%nproc=10
%mem=12gb
%chk=__NAME__

# m08hx/6-311++G** opt(tight,maxcyc=300) freq

__NAME__

0   1
