%nproc=8
%mem=12gb
%chk=__NAME__

# m08hx/gen scf(conver=10) opt(tight,maxcycles=500) freq

__NAME__

0   1
