%nproc=8
%mem=12gb
%chk=__NAME__

# m08hx/gen opt(tight,maxcyc=300)

__NAME__

0   1
