%nproc=8
%mem=12gb
%chk=__NAME__

# pw91pw91/6-311++G** opt(tight,maxcyc=300) freq

__NAME__

0   1
