%nproc=8
%mem=14gb
%chk=__NAME__

# PW91PW91/6-31+G* opt(loose,maxcyc=300)

__NAME__

0   1
